NAME : random_7
COMMENT : 30 random nodes
TYPE : TSP
DIMENSION : 30
EDGE_WEIGHT_TYPE : EUC_2D
NODE_COORD_SECTION
1 54 666
2 974 297
3 58 926
4 686 975
5 60 426
6 985 264
7 16 412
8 494 758
9 184 397
10 322 148
11 95 500
12 162 233
13 847 380
14 303 243
15 556 654
16 325 329
17 973 99
18 514 786
19 315 567
20 455 639
21 30 716
22 491 795
23 878 578
24 452 356
25 440 267
26 921 708
27 92 839
28 271 237
29 621 691
30 734 798
EOF